c Lingeling SAT Solver
c 
c Version ala b02aa1a04343558c4252b5f4a723be021964f652
c 
c Copyright (C) 2010-2012 Armin Biere JKU Linz Austria.
c All rights reserved.
c 
c released Sat Oct 13 14:05:26 CEST 2012
c compiled Sat Feb 16 02:48:12 EST 2013
c 
c gcc (Debian 4.4.5-8) 4.4.5
c -Wall -O3 -DNLGLOG -DNDEBUG -DNCHKSOL -DNLGLPICOSAT 
c Linux greencar2 2.6.32-5-amd64 x86_64
c 
c reading input file p14.cnf
c no embedded options
c found 'p cnf 215510 666316' header
c read 215510 variables, 666316 clauses, 1385752 literals in 0.0 seconds
c
c feature vars 215510
c feature lits.total 1385752
c feature lits.pos 738540
c feature lits.neg 647212
c feature clauses.total 666316
c feature clauses.unit 80666
c feature clauses.bin 469264
c feature clauses.trn 114986
c feature clauses.lrg 1400
c feature cog.val.min 1
c feature cog.val.avg 96051
c feature cog.val.max 207168
c feature cog.var.min 1
c feature cog.var.avg 107756
c feature cog.var.max 215509
c
c
c --abstime=0
c --acts=2
c --actavgmax=120
c --actstdmin=20
c --actstdmax=80
c --agile=23
c --bias=2
c --block=1
c --blkrtc=0
c --blkclslim=2000
c --blkocclim=2000
c --blkmaxeff=2147483647
c --blkmineff=10000000
c --blkreleff=20
c --card=0
c --cce=3
c --ccemaxeff=100000000
c --ccemineff=5000000
c --ccereleff=3
c --check=0
c --cgrclsr=1
c --cgrmaxority=20
c --cgrmaxeff=8000000
c --cgrmineff=200000
c --cgreleff=1
c --cgrexteq=1
c --cgrextand=1
c --cgrextunits=1
c --cgrextite=1
c --cgrextxor=1
c --cliff=1
c --cliffreleff=8
c --cliffmineff=10000000
c --cliffmaxeff=100000000
c --compact=0
c --decompose=1
c --defragint=10000000
c --defragfree=50
c --elim=1
c --elmrtc=0
c --elmblk=1
c --elmclslim=1000
c --elmocclim=1000
c --elmaxeff=100000000
c --elmineff=5000000
c --elmreleff=10
c --sleeponabort=0
c --exitonabort=0
c --flipping=1
c --flipint=2
c --flipdur=50
c --fliptop=1
c --force=0
c --gauss=1
c --gaussextrall=1
c --gaussmaxor=20
c --gaussexptrn=1
c --gaussmaxeff=50000000
c --gaussmineff=2000000
c --gaussreleff=2
c --gluescale=2
c --gluekeep=0
c --inprocessing=1
c --cintinc=10000
c --irrlim=20
c --lift=1
c --lftmaxeff=20000000
c --lftmineff=500000
c --lftreleff=6
c --lhbr=1
c --lkhd=1
c --clim=-1
c --mocint=1000
c --move=2
c --log=-1
c --otfs=1
c --phase=0
c --phaseneginit=0
c --plain=0
c --probe=1
c --prbasicmaxeff=100000000
c --prbasicmineff=1000000
c --prbasicreleff=10
c --prbasic=1
c --prbasicroundlim=9
c --queuemergelim=10000
c --queuefactor=833
c --queueinc=20
c --rmincpen=4
c --seed=0
c --smallirr=90
c --smallve=1
c --smallvevars=12
c --randec=1
c --randecint=1000
c --redfixed=0
c --redlbound=0
c --redlexpfac=10
c --redldoutfac=0
c --redloutinc=10000
c --redlinit=1000
c --redlinc=1000
c --redinoutinc=100
c --redlmininc=10
c --redlmaxinc=200
c --redlminrel=10
c --redlmaxrel=300
c --redlminabs=500
c --redlmaxabs=1000000
c --reduce=1
c --restart=2
c --restartint=5
c --rstinoutinc=110
c --simplify=1
c --simpdelay=100
c --simpen=4
c --sizepen=1000000
c --sizemaxpen=3
c --sortlits=0
c --syncint=111111
c --termint=122222
c --ternres=1
c --ternresrtc=0
c --trnrmineff=4000000
c --trnrmaxeff=40000000
c --trnreleff=10
c --transred=1
c --trdmineff=100000
c --trdmaxeff=2000000
c --trdreleff=10
c --unhide=1
c --unhdextstamp=1
c --unhdhbr=0
c --unhdmaxeff=20000000
c --unhdmineff=1000000
c --unhdreleff=4
c --unhdlnpr=3
c --unhdroundlim=5
c --verbose=1
c --witness=1
c [limits] no conflict limit
c [limits] simplification delayed by 100 to 100 conflicts
c 
c  seconds         irredundant          redundant clauses agility   height
c          variables clauses conflicts large binary ternary    glue         MB
c 
c *    0.0  118186   494192         0       0      0     0  62  0.0   0.0   41
c [cut-width] 163691, max 257022, min4 107868 at 75%, min10 32549 at 89%
c [decision-order] bias 1, old 1
c [queue-schedule-all-variables]
c s    0.0  118186   494192         0       0      0     0  62  0.0   0.0   41
c [simplification-1] limit hit at 100 conflicts
c [simplification-1] simplification penalty of 4
c [ternres-1] limit 4000000 with penalty 0 = 0 + 0
c [ternres-1] all 118186 free variables schedulable
c [ternres-1] 1 ternary resolvents (0 bin, 1 trn)
c [ternres-1] 28191 variables remain 24% (89995 retained)
c T    0.3  118186   494192       100      93      4     4   9  6.7 362.1   44
c [gauss-1] limit 2000000 penalty 0 = 0 + 0
c [gauss-1] extracted 167433 xors of average arity 2.0
c [gauss-1] connected 334872 occurrences of 91613 variables (average 3.7)
c [gauss-1] limit 2000000 penalty 0 = 0 + 0
c d    0.9   54335   245241       100      93      4     4   9  6.7 362.1   20
c [gauss-1] exported 0 unary, 1 binary and 0 ternary equations
c G    0.9   54335   245241       100      93      4     4   9  6.7 362.1   20
c [basicprobe-1] limit 1000000 penalty 0 = 0 + 0
c [basicprobe-1-0] 3895 probes remain 7% after last round
c [basicprobe-1-0] 1 units = 1 failed (100%) + 0 lifted (0%)
c [basicprobe-1-0] removed 1 variables, found 1226 hbrs
c p    1.1   54334   245241       100      93   1230     4   9  6.7 362.1   24
c [cgrclsr-1] limit 200000 penalty 0 = 0 + 0
c [cgrclsr-1] all 54334 free variables schedulable
c [cgrclsr-1] fully completed congruence closure
c [lift-1] limit 500000 with penalty 0 = 0 + 0
c [lift-1] using 54334 probes 100%
c [lift-1] 54305 variables remain 100% (29 retained)
c [cliff-1] limit of 10000000 steps penalty 0 = 0 + 0
c [cliff-1] failed 0, lifted 0
c [unhide-1] limit 1000000 with penalty 0 = 0 + 0
c [unhide-1-1] 0 units, 2 failed, 19356 tauts, 0 hbrs, 55 literals
c u    1.7   54333   225881       100      93  22482     4   9  6.7 362.1   24
c [transred-1] limit 100000 with penalty 0 = 0 + 0
c t    1.7   54333   225881       100      93  22477     4   9  6.7 362.1   25
c [block-1] scheduling all variables this time
c [block-1] scheduled 54333 variables 100%
c [block-1] limit of 10000000 steps penalty 0 = 0 + 0
c [block-1] fully completed blocked clause elimination
c [block-1] transition to [ all 0 rem 0 ] state
c [block-1] eliminated 4400 blocked clauses
c k    1.9   54333   221477       100      93  22477  4404   9  6.7 362.1   21
c [cce-1] scheduling all variables this time
c [cce-1] limit of 10000000 steps penalty 0 = 0 + 0
c [cce-1] incomplete covered clause elimination 48251 not tried 89%
c [cce-1] transition to [ all 1 rem 1 ] state
c [cce-1] eliminated 80 covered clauses
c E    2.3   54329   221397       100      93  28811  4403   9  6.7 362.1   21
c [elim-1] scheduling all variables this time
c [elim-1] scheduled 54329 variables 100%
c [elim-1] limit of 5000000 steps penalty 0 = 0 + 0
c [elim-1] incomplete variable elimination 39792 not tried 73%
c [elim-1] transition to [ all 1 rem 1 ] state
c [elim-1] eliminated 6060 = 11% variables out of 54329
c e    3.2   48269   217661       100      58  10187   577   9  6.7 362.1   20
c [phase-1] phase bias: 799 positive 12%, 5881 negative 88%
c [simplification-1] removed 69917 variables 59%
c [simplification-1] limit increments divided by 30
c [simplification-1] arithmetic increase of conflict limit interval by 333
c [simplification-1] new irredundant limit 2167452
c [simplification-1] new conflict limit 433
c [simplification-1] simplification penalty reduced to 3
c i    3.3   48268   217660       121      75  10188   579   9  6.1 346.3   24
c R    3.3   48268   217660       160     110  10189   582   9  5.9 320.5   24
c 1    3.4   48268   217660       386     307  10197   602  11  6.7 232.9   25
c 
c  seconds         irredundant          redundant clauses agility   height
c          variables clauses conflicts large binary ternary    glue         MB
c 
c blkd: 1 bces, 4400 removed, 659134 resolutions, 1867367 steps
c blkd: 4400 blocking literals 1%, 0 pure
c cces: 1 cces, 41 eliminated, 41 ate 100%, 0 abce 0%
c cces: 12164 probed, 1 lifted, 4 failed
c clff: 1 cliffs, 0 lifted, 0 failed
c clff: 3283 decisions, 10006389 steps
c clls: 1 sat, 0 simp, 0 freeze, 0 melt
c clls: 2052068 add, 0 assume,, 0 deref, 0 failed
c clls: 0 cassume, 0 mosat
c coll: 8 gcs, 0 rescored clauses
c cgrs: 1 count, 200000 esteps, 52767 csteps
c cgrs: 0 eqs, 0 units
c cgrs: 0 matched (0 ands 0%, 0 xors 0%, 0 ites 0%)
c cgrs: 0 simplified (0 ands 0%, 0 xors 0%, 0 ites 0%)
c cgrs: 1855 extracted (1517 ands 82%, 338 xors 18%, 0 ites 0%)
c dcps: 2 decompositions, 63851 equivalent 30%
c decs: 6774 decision, 6 random 0.089%
c decs: 1428 flipped 21.081% (in 3 phases)
c elms: 1 elims, 6060 eliminated 3%
c elms: 6060 small 100%, 0 large 0%
c elms: 14591 tried small, 6060 succeeded 42%, 8531 failed 58%
c elms: 0 subsumed, 0 strengthened, 0 blocked
c elms: 160807 copies, 114308 resolutions, 317404 ipos
c elms: 0 subchks, 0 strchks
c frcs: 0 computed, 41.5 - 58.5 average min-cut range
c gaus: 1 extractions, 167433 extracted, 2.0 size, 3 max
c gaus: exported 0 units, 1 binary and 0 ternary equations
c gaus: 0 gc, 4000084 steps, 2000042 extr 50%, 2237368 elim 56%
c glue: 6.7 avg, 2.6 scaled avg
c glue: 0 maxredglue=15 (0%)
c lift: 1 phases, 174 probed (58 level1 33%, 116 level2 67%)
c lift: 0 units, 0 equivalences, 0 implications
c hbrs: 28770 hbrs = 28770 trn 100% + 0 lrg 0%, 0 sub 0%
c lrnd: 384 clauses, 256 uips 67%, 18.3 length, 6.7 glue
c ints: 31 luby (1759 steps), 0 inout (0 steps)
c mins: 7014 learned lits, 1% minimized
c move: moved 4441, 41 binary 1%, 4400 ternary 99%
c otfs: str 4 dyn (2 red, 2 irr) 2 drv 50%, 2 rst 50%
c otfs: sub 0 dyn (0 red, 0 irr)
c phas: 1 computed, 6816 set, 799 pos (12%), 6017 neg (88%)
c prbs: 1 basic, 1170 probed, 1 failed, 0 lifted
c prps: 5492768 props, 201 props/dec
c prps: 25% srch, 75% simp, 0% lkhd
c psns: 69873 searches, 3554 hits, 5% hit rate
c queu: 790 new, 118 del, 102 maximum priority
c queu: 659 merged, 96 collected, 1 gcs
c queu: 388 deprioritized, 16.9 lines on average
c reds: 0 count, 0 reset, 0 acts 0%, 0 exp 0%
c reds: 0 arithmetic 0%, 0 double 0%
c rmbd: 0 removed, 0 red 0%
c rsts: 20 restarts 67%, 10 skipped 33%
c rsts: 2 kept 10.0% average 51.5%
c simp: 1 count (0 ilim 0%, 0 plim 0%, 1 clim 100%)
c trnr: 1 count, 0 bin, 1 trn, 4000002 steps
c tops: 97331 fixed 45%, 1 iterations
c trds: 2 transitive reductions, 5 removed, 0 failed
c trds: 79 nodes, 113 edges, 100094 steps
c unhd: 1 count, 1 rounds, 1191454 steps
c unhd: 0 non-trivial sccs of average size 0.0
c unhd: 0 units, 0 bin, 0 trn, 0 lrg
c unhd: 2 failed, 2 stamp, 0 lits, 0 bin, 0 trn, 0 lrg
c unhd: 19356 tauts, 0 bin 0%, 0 trn 0%, 0 lrg 0%
c unhd: 19356 tauts, 19356 stamp 100%, 0 red 0%
c unhd: 0 hbrs, 0 trn 0%, 0 lrg 0%, 0 red 0%
c unhd: 55 strd, 0 bin 0%, 0 trn 0%, 55 lrg 100%, 55 red 100%
c vars: 48268 remaining 22% and 167242 removed 78% out of 215510
c vars: 97331 fixed 45%, 6060 eliminated 3%, 63851 equivalent 30%
c vsts: 24582781 visits, 24% srch, 76% simp, 0% lkhd
c vsts: 4.3 search visits per propagation 15104.3 per conflict
c wchs: 5539260 pushed, 2655092 enlarged, 13 defrags
c 
c scaledglue  added       reduced       forcing      resolved     conflicts
c 
c all       343 100         0 100       902 100       407 100         8 100
c 
c  0          0   0         0   0<        0   0         0   0         0   0 
c  1          3   1         0   0         7   1         5   1         0   0 
c  2        121  35         0   0       402  45       156  38         6  75<
c  3        149  43<        0   0       412  46<      176  43<        2  25 
c  4         41  12         0   0        52   6        41  10         0   0 
c  5         29   8         0   0        29   3        29   7         0   0 
c  6          0   0         0   0         0   0         0   0         0   0 
c  7          0   0         0   0         0   0         0   0         0   0 
c  8          0   0         0   0         0   0         0   0         0   0 
c  9          0   0         0   0         0   0         0   0         0   0 
c 10          0   0         0   0         0   0         0   0         0   0 
c 11          0   0         0   0         0   0         0   0         0   0 
c 12          0   0         0   0         0   0         0   0         0   0 
c 13          0   0         0   0         0   0         0   0         0   0 
c 14          0   0         0   0         0   0         0   0         0   0 
c 15          0   0         0   0         0   0         0   0         0   0 
c 
c avg             2.9           0.0           2.7           2.8           2.2
c std             0.9           0.0           0.7           0.9           0.4
c 
c 6774 decisions, 386 conflicts, 114.6 conflicts/sec
c 5492768 propagations, 1.6 megaprops/sec
c 3.4 seconds, 47.5 MB
c 
c    0.032   1% analysis
c    0.164   5% block
c    0.000   0% bump
c    0.000   0% card
c    0.400  12% cce
c    0.328  10% cliff
c    0.020   1% cutwidth
c    0.012   0% decide
c    0.000   0% force
c    0.368  11% gc
c    0.128   4% cgrclsr
c    0.216   6% decomp
c    0.096   3% defrag
c    0.916  27% elim
c    0.668  20% gauss
c    0.092   3% lift
c    0.000   0% mincls
c    0.020   1% phase
c    0.056   2% probe
c    0.000   0% reduce
c    0.020   1% restart
c    0.072   2% ternres
c    0.004   0% transred
c    0.088   3% unhide
c ==================================
c    0.028   1% preprocessing     1%
c    3.060  91% inprocessing     99%
c ==================================
c    3.088  92% simplifying
c    0.000   0% lookahead
c    0.268   8% search
c ==================================
c    3.368 100% all
c
s SATISFIABLE
